tsp_instances/TSP50/instance13.tsp
NODE_COORD_SECTION
0 7 22
1 104 94
2 96 0
3 11 115
4 64 81
5 185 76
6 112 136
7 23 97
8 146 122
9 154 129
10 39 86
11 156 81
12 124 89
13 112 170
14 38 152
15 90 17
16 72 28
17 136 167
18 31 12
19 80 127
20 150 189
21 164 104
22 76 158
23 194 172
24 80 7
25 43 181
26 76 0
27 54 34
28 130 121
29 174 63
30 13 13
31 62 139
32 145 96
33 101 13
34 169 79
35 47 88
36 14 158
37 4 175
38 55 67
39 156 42
40 89 147
41 107 189
42 91 95
43 35 11
44 84 98
45 174 175
46 113 182
47 10 93
48 163 87
49 22 121
