tsp_instances/TSP50/instance13.opt.tour
TOUR_SECTION
1
31
19
44
28
17
16
25
27
3
34
40
30
6
35
12
49
22
33
13
2
43
45
20
41
7
29
9
10
24
46
21
18
14
47
42
23
32
15
26
38
37
50
4
48
8
11
36
5
39
-1